
(set-logic HORN)
(declare-fun zero_138 () Int)
(declare-fun succ_134 (Int) Int)
(declare-datatypes ((Bool_302 0)) (((false_302) (true_302))))
(declare-fun diseqBool_141 (Bool_302 Bool_302) Bool)
(declare-fun isfalse_141 (Bool_302) Bool)
(declare-fun istrue_141 (Bool_302) Bool)
(assert (isfalse_141 false_302))
(assert (istrue_141 true_302))
(assert (diseqBool_141 false_302 true_302))
(assert (diseqBool_141 true_302 false_302))
(declare-fun and_302 (Bool_302 Bool_302 Bool_302) Bool)
(declare-fun or_309 (Bool_302 Bool_302 Bool_302) Bool)
(declare-fun hence_302 (Bool_302 Bool_302 Bool_302) Bool)
(declare-fun not_307 (Bool_302 Bool_302) Bool)
(assert (and_302 false_302 false_302 false_302))
(assert (and_302 false_302 true_302 false_302))
(assert (and_302 false_302 false_302 true_302))
(assert (and_302 true_302 true_302 true_302))
(assert (or_309 false_302 false_302 false_302))
(assert (or_309 true_302 true_302 false_302))
(assert (or_309 true_302 false_302 true_302))
(assert (or_309 true_302 true_302 true_302))
(assert (hence_302 true_302 false_302 false_302))
(assert (hence_302 false_302 true_302 false_302))
(assert (hence_302 true_302 false_302 true_302))
(assert (hence_302 true_302 true_302 true_302))
(assert (not_307 true_302 false_302))
(assert (not_307 false_302 true_302))
(declare-fun diseqInt (Int Int) Bool)
(declare-fun p_376 (Int Int) Bool)
(declare-fun iszero_134 (Int) Bool)
(declare-fun issucc_134 (Int) Bool)
(assert (forall ((x_53112 Int))
	(p_376 x_53112 (succ_134 x_53112))))
(assert (iszero_134 zero_138))
(assert (forall ((x_53114 Int))
	(issucc_134 (succ_134 x_53114))))
(assert (forall ((x_53115 Int))
	(diseqInt zero_138 (succ_134 x_53115))))
(assert (forall ((x_53116 Int))
	(diseqInt (succ_134 x_53116) zero_138)))
(assert (forall ((x_53117 Int) (x_53118 Int))
	(=> (diseqInt x_53117 x_53118) (diseqInt (succ_134 x_53117) (succ_134 x_53118)))))
(declare-datatypes ((list_214 0)) (((nil_242) (cons_214 (head_428 Int) (tail_428 list_214)))))
(declare-fun diseqlist_214 (list_214 list_214) Bool)
(declare-fun head_429 (Int list_214) Bool)
(declare-fun tail_429 (list_214 list_214) Bool)
(declare-fun isnil_242 (list_214) Bool)
(declare-fun iscons_214 (list_214) Bool)
(assert (forall ((x_53120 Int) (x_53121 list_214))
	(head_429 x_53120 (cons_214 x_53120 x_53121))))
(assert (forall ((x_53120 Int) (x_53121 list_214))
	(tail_429 x_53121 (cons_214 x_53120 x_53121))))
(assert (isnil_242 nil_242))
(assert (forall ((x_53123 Int) (x_53124 list_214))
	(iscons_214 (cons_214 x_53123 x_53124))))
(assert (forall ((x_53125 Int) (x_53126 list_214))
	(diseqlist_214 nil_242 (cons_214 x_53125 x_53126))))
(assert (forall ((x_53127 Int) (x_53128 list_214))
	(diseqlist_214 (cons_214 x_53127 x_53128) nil_242)))
(assert (forall ((x_53129 Int) (x_53130 list_214) (x_53131 Int) (x_53132 list_214))
	(=> (diseqInt x_53129 x_53131) (diseqlist_214 (cons_214 x_53129 x_53130) (cons_214 x_53131 x_53132)))))
(assert (forall ((x_53129 Int) (x_53130 list_214) (x_53131 Int) (x_53132 list_214))
	(=> (diseqlist_214 x_53130 x_53132) (diseqlist_214 (cons_214 x_53129 x_53130) (cons_214 x_53131 x_53132)))))
(declare-datatypes ((pair_92 0)) (((pair_93 (projpair_184 list_214) (projpair_185 list_214)))))
(declare-fun diseqpair_46 (pair_92 pair_92) Bool)
(declare-fun projpair_186 (list_214 pair_92) Bool)
(declare-fun projpair_187 (list_214 pair_92) Bool)
(declare-fun ispair_46 (pair_92) Bool)
(assert (forall ((x_53133 list_214) (x_53134 list_214))
	(projpair_186 x_53133 (pair_93 x_53133 x_53134))))
(assert (forall ((x_53133 list_214) (x_53134 list_214))
	(projpair_187 x_53134 (pair_93 x_53133 x_53134))))
(assert (forall ((x_53136 list_214) (x_53137 list_214))
	(ispair_46 (pair_93 x_53136 x_53137))))
(assert (forall ((x_53138 list_214) (x_53139 list_214) (x_53140 list_214) (x_53141 list_214))
	(=> (diseqlist_214 x_53138 x_53140) (diseqpair_46 (pair_93 x_53138 x_53139) (pair_93 x_53140 x_53141)))))
(assert (forall ((x_53138 list_214) (x_53139 list_214) (x_53140 list_214) (x_53141 list_214))
	(=> (diseqlist_214 x_53139 x_53141) (diseqpair_46 (pair_93 x_53138 x_53139) (pair_93 x_53140 x_53141)))))
(declare-fun take_49 (list_214 Int list_214) Bool)
(assert (forall ((x_53014 list_214) (z_1831 Int) (xs_590 list_214) (z_1830 Int))
	(=> (take_49 x_53014 z_1830 xs_590) (take_49 (cons_214 z_1831 x_53014) (succ_134 z_1830) (cons_214 z_1831 xs_590)))))
(assert (forall ((z_1830 Int))
	(take_49 nil_242 (succ_134 z_1830) nil_242)))
(assert (forall ((y_2056 list_214))
	(take_49 nil_242 zero_138 y_2056)))
(declare-fun plus_132 (Int Int Int) Bool)
(assert (forall ((x_53018 Int) (z_1832 Int) (y_2057 Int))
	(=> (plus_132 x_53018 z_1832 y_2057) (plus_132 (succ_134 x_53018) (succ_134 z_1832) y_2057))))
(assert (forall ((x_53019 Int))
	(plus_132 x_53019 zero_138 x_53019)))
(declare-fun minus_321 (Int Int Int) Bool)
(assert (forall ((x_53020 Int) (y_2059 Int) (z_1833 Int))
	(=> (minus_321 x_53020 z_1833 y_2059) (minus_321 x_53020 (succ_134 z_1833) (succ_134 y_2059)))))
(assert (forall ((z_1833 Int))
	(minus_321 zero_138 (succ_134 z_1833) zero_138)))
(assert (forall ((y_2058 Int))
	(minus_321 zero_138 zero_138 y_2058)))
(declare-fun third_11 (Int Int) Bool)
(assert (third_11 zero_138 (succ_134 (succ_134 zero_138))))
(assert (=> (diseqInt (succ_134 zero_138) (succ_134 (succ_134 zero_138))) (third_11 zero_138 (succ_134 zero_138))))
(assert (third_11 zero_138 (succ_134 (succ_134 zero_138))))
(assert (forall ((x_53027 Int) (x_53028 Int) (x_53029 Int) (y_2060 Int))
	(=> (and (diseqInt (succ_134 y_2060) (succ_134 (succ_134 zero_138))) (diseqInt (succ_134 y_2060) (succ_134 zero_138)) (minus_321 x_53028 (succ_134 y_2060) (succ_134 (succ_134 (succ_134 zero_138)))) (third_11 x_53029 x_53028) (plus_132 x_53027 (succ_134 zero_138) x_53029)) (third_11 x_53027 (succ_134 y_2060)))))
(assert (third_11 zero_138 (succ_134 (succ_134 zero_138))))
(assert (=> (diseqInt (succ_134 zero_138) (succ_134 (succ_134 zero_138))) (third_11 zero_138 (succ_134 zero_138))))
(assert (third_11 zero_138 (succ_134 (succ_134 zero_138))))
(assert (=> (and (diseqInt zero_138 (succ_134 (succ_134 zero_138))) (diseqInt zero_138 (succ_134 zero_138))) (third_11 zero_138 zero_138)))
(declare-fun twoThirds_5 (Int Int) Bool)
(assert (twoThirds_5 (succ_134 zero_138) (succ_134 (succ_134 zero_138))))
(assert (=> (diseqInt (succ_134 zero_138) (succ_134 (succ_134 zero_138))) (twoThirds_5 (succ_134 zero_138) (succ_134 zero_138))))
(assert (twoThirds_5 (succ_134 zero_138) (succ_134 (succ_134 zero_138))))
(assert (forall ((x_53038 Int) (x_53039 Int) (x_53040 Int) (y_2061 Int))
	(=> (and (diseqInt (succ_134 y_2061) (succ_134 (succ_134 zero_138))) (diseqInt (succ_134 y_2061) (succ_134 zero_138)) (minus_321 x_53039 (succ_134 y_2061) (succ_134 (succ_134 (succ_134 zero_138)))) (twoThirds_5 x_53040 x_53039) (plus_132 x_53038 (succ_134 (succ_134 zero_138)) x_53040)) (twoThirds_5 x_53038 (succ_134 y_2061)))))
(assert (twoThirds_5 (succ_134 zero_138) (succ_134 (succ_134 zero_138))))
(assert (=> (diseqInt (succ_134 zero_138) (succ_134 (succ_134 zero_138))) (twoThirds_5 (succ_134 zero_138) (succ_134 zero_138))))
(assert (twoThirds_5 (succ_134 zero_138) (succ_134 (succ_134 zero_138))))
(assert (=> (and (diseqInt zero_138 (succ_134 (succ_134 zero_138))) (diseqInt zero_138 (succ_134 zero_138))) (twoThirds_5 zero_138 zero_138)))
(declare-fun leq_52 (Bool_302 Int Int) Bool)
(assert (forall ((x_53046 Bool_302) (x_52994 Int) (z_1834 Int))
	(=> (leq_52 x_53046 z_1834 x_52994) (leq_52 x_53046 (succ_134 z_1834) (succ_134 x_52994)))))
(assert (forall ((z_1834 Int))
	(leq_52 false_302 (succ_134 z_1834) zero_138)))
(assert (forall ((y_2062 Int))
	(leq_52 true_302 zero_138 y_2062)))
(declare-fun sort_32 (list_214 Int Int) Bool)
(assert (forall ((x_52995 Int) (y_2063 Int))
	(=> (leq_52 true_302 x_52995 y_2063) (sort_32 (cons_214 x_52995 (cons_214 y_2063 nil_242)) x_52995 y_2063))))
(assert (forall ((x_52995 Int) (y_2063 Int))
	(=> (leq_52 false_302 x_52995 y_2063) (sort_32 (cons_214 y_2063 (cons_214 x_52995 nil_242)) x_52995 y_2063))))
(declare-fun length_39 (Int list_214) Bool)
(assert (forall ((x_53054 Int) (x_53055 Int) (y_2064 Int) (l_41 list_214))
	(=> (and (length_39 x_53055 l_41) (plus_132 x_53054 (succ_134 zero_138) x_53055)) (length_39 x_53054 (cons_214 y_2064 l_41)))))
(assert (length_39 zero_138 nil_242))
(declare-fun insert_26 (list_214 Int list_214) Bool)
(assert (forall ((z_1835 Int) (xs_591 list_214) (x_52997 Int))
	(=> (leq_52 true_302 x_52997 z_1835) (insert_26 (cons_214 x_52997 (cons_214 z_1835 xs_591)) x_52997 (cons_214 z_1835 xs_591)))))
(assert (forall ((x_53062 list_214) (z_1835 Int) (xs_591 list_214) (x_52997 Int))
	(=> (and (insert_26 x_53062 x_52997 xs_591) (leq_52 false_302 x_52997 z_1835)) (insert_26 (cons_214 z_1835 x_53062) x_52997 (cons_214 z_1835 xs_591)))))
(assert (forall ((x_52997 Int))
	(insert_26 (cons_214 x_52997 nil_242) x_52997 nil_242)))
(declare-fun isort_26 (list_214 list_214) Bool)
(assert (forall ((x_53064 list_214) (x_53065 list_214) (y_2066 Int) (xs_592 list_214))
	(=> (and (isort_26 x_53065 xs_592) (insert_26 x_53064 y_2066 x_53065)) (isort_26 x_53064 (cons_214 y_2066 xs_592)))))
(assert (isort_26 nil_242 nil_242))
(declare-fun drop_51 (list_214 Int list_214) Bool)
(assert (forall ((x_53068 list_214) (z_1837 Int) (xs_593 list_214) (z_1836 Int))
	(=> (drop_51 x_53068 z_1836 xs_593) (drop_51 x_53068 (succ_134 z_1836) (cons_214 z_1837 xs_593)))))
(assert (forall ((z_1836 Int))
	(drop_51 nil_242 (succ_134 z_1836) nil_242)))
(assert (forall ((x_53071 list_214))
	(drop_51 x_53071 zero_138 x_53071)))
(declare-fun splitAt_23 (pair_92 Int list_214) Bool)
(assert (forall ((x_53073 list_214) (x_53074 list_214) (x_53000 Int) (y_2068 list_214))
	(=> (and (take_49 x_53073 x_53000 y_2068) (drop_51 x_53074 x_53000 y_2068)) (splitAt_23 (pair_93 x_53073 x_53074) x_53000 y_2068))))
(declare-fun x_53001 (list_214 list_214 list_214) Bool)
(assert (forall ((x_53076 list_214) (z_1838 Int) (xs_594 list_214) (y_2069 list_214))
	(=> (x_53001 x_53076 xs_594 y_2069) (x_53001 (cons_214 z_1838 x_53076) (cons_214 z_1838 xs_594) y_2069))))
(assert (forall ((x_53077 list_214))
	(x_53001 x_53077 nil_242 x_53077)))
(declare-fun nstoogesort_33 (list_214 list_214) Bool)
(declare-fun nstoogesort_34 (list_214 list_214) Bool)
(declare-fun nstoogesort_35 (list_214 list_214) Bool)
(assert (forall ((x_53081 list_214) (x_53082 list_214) (x_53078 Int) (x_53079 Int) (ys_195 list_214) (zs_67 list_214) (x_53003 list_214))
	(=> (and (nstoogesort_34 x_53082 ys_195) (x_53001 x_53081 x_53082 zs_67) (length_39 x_53078 x_53003) (twoThirds_5 x_53079 x_53078) (splitAt_23 (pair_93 ys_195 zs_67) x_53079 x_53003)) (nstoogesort_33 x_53081 x_53003))))
(assert (forall ((x_53084 list_214) (x_53085 list_214) (x_53086 list_214) (x_53006 Int) (x_53007 list_214) (y_2071 Int) (y_2070 Int))
	(=> (and (nstoogesort_33 x_53085 (cons_214 y_2070 (cons_214 y_2071 (cons_214 x_53006 x_53007)))) (nstoogesort_35 x_53086 x_53085) (nstoogesort_33 x_53084 x_53086)) (nstoogesort_34 x_53084 (cons_214 y_2070 (cons_214 y_2071 (cons_214 x_53006 x_53007)))))))
(assert (forall ((x_53088 list_214) (y_2071 Int) (y_2070 Int))
	(=> (sort_32 x_53088 y_2070 y_2071) (nstoogesort_34 x_53088 (cons_214 y_2070 (cons_214 y_2071 nil_242))))))
(assert (forall ((y_2070 Int))
	(nstoogesort_34 (cons_214 y_2070 nil_242) (cons_214 y_2070 nil_242))))
(assert (nstoogesort_34 nil_242 nil_242))
(assert (forall ((x_53095 list_214) (x_53096 list_214) (x_53092 Int) (x_53093 Int) (ys_196 list_214) (zs_68 list_214) (x_53008 list_214))
	(=> (and (nstoogesort_34 x_53096 zs_68) (x_53001 x_53095 ys_196 x_53096) (length_39 x_53092 x_53008) (third_11 x_53093 x_53092) (splitAt_23 (pair_93 ys_196 zs_68) x_53093 x_53008)) (nstoogesort_35 x_53095 x_53008))))
(assert (forall ((x_53098 Int) (x_53099 Int) (x_53100 Int) (x_53101 Int) (x_53009 Int) (y_2072 Int) (z_1840 Int))
	(=> (and true (diseqInt x_53099 x_53101) (plus_132 x_53098 y_2072 z_1840) (plus_132 x_53099 x_53009 x_53098) (plus_132 x_53100 x_53009 y_2072) (plus_132 x_53101 x_53100 z_1840)) false)))
(assert (forall ((x_53102 Int) (x_53103 Int) (x_53010 Int) (y_2073 Int))
	(=> (and true (diseqInt x_53102 x_53103) (plus_132 x_53102 x_53010 y_2073) (plus_132 x_53103 y_2073 x_53010)) false)))
(assert (forall ((x_53104 Int) (x_53011 Int))
	(=> (and true (diseqInt x_53104 x_53011) (plus_132 x_53104 x_53011 zero_138)) false)))
(assert (forall ((x_53105 Int) (x_53012 Int))
	(=> (and true (diseqInt x_53105 x_53012) (plus_132 x_53105 zero_138 x_53012)) false)))
(assert (forall ((x_53106 list_214) (x_53107 list_214) (xs_595 list_214))
	(=> (and true (diseqlist_214 x_53106 x_53107) (nstoogesort_34 x_53106 xs_595) (isort_26 x_53107 xs_595)) false)))
(check-sat)
